python/teste/teste35
4 3
1 5 0 3 2 7
2 1 0 5 1 8
2 5 0 9 1 1
1 4 0 2 2 4
